; 
(set-info :status unknown)
(declare-fun standard_metadata.ingress_port () (_ BitVec 9))
(declare-fun standard_metadata.egress_spec () (_ BitVec 9))
(assert
 (let (($x30 (= standard_metadata.ingress_port (_ bv1 9))))
 (or (or false (= standard_metadata.ingress_port (_ bv0 9))) $x30)))
(assert
 (let (($x30 (= standard_metadata.ingress_port (_ bv1 9))))
 (let (($x31 (and true $x30)))
 (let (($x34 (and true (not (and true (= standard_metadata.ingress_port (_ bv0 9)))))))
 (let (($x27 (= standard_metadata.ingress_port (_ bv0 9))))
 (let (($x28 (and true $x27)))
 (let (($x32 (and true $x28)))
 (let ((?x46 (ite $x32 (_ bv1 9) (ite (and $x34 $x31) (_ bv0 9) standard_metadata.egress_spec))))
 (let (($x37 (= ?x46 (_ bv511 9))))
 (or $x37 (or (or false (= ?x46 (_ bv0 9))) (= ?x46 (_ bv1 9)))))))))))))
(assert
 (let ((?x42 (ite (and true (and true (= standard_metadata.ingress_port (_ bv1 9)))) 1 (- 1))))
 (let (($x27 (= standard_metadata.ingress_port (_ bv0 9))))
 (let (($x28 (and true $x27)))
 (let (($x32 (and true $x28)))
 (let ((?x45 (ite $x32 0 ?x42)))
 (let (($x30 (= standard_metadata.ingress_port (_ bv1 9))))
 (let (($x31 (and true $x30)))
 (let ((?x43 (ite (and (and true (not $x28)) $x31) (_ bv0 9) standard_metadata.egress_spec)))
 (let ((?x46 (ite $x32 (_ bv1 9) ?x43)))
 (let (($x37 (= ?x46 (_ bv511 9))))
 (and (and (not $x37) true) (= ?x45 (- 1))))))))))))))
(check-sat)

; 
(set-info :status unknown)
(declare-fun standard_metadata.ingress_port () (_ BitVec 9))
(declare-fun standard_metadata.egress_spec () (_ BitVec 9))
(assert
 (let (($x30 (= standard_metadata.ingress_port (_ bv1 9))))
 (or (or false (= standard_metadata.ingress_port (_ bv0 9))) $x30)))
(assert
 (let (($x30 (= standard_metadata.ingress_port (_ bv1 9))))
 (let (($x31 (and true $x30)))
 (let (($x34 (and true (not (and true (= standard_metadata.ingress_port (_ bv0 9)))))))
 (let (($x27 (= standard_metadata.ingress_port (_ bv0 9))))
 (let (($x28 (and true $x27)))
 (let (($x32 (and true $x28)))
 (let ((?x46 (ite $x32 (_ bv1 9) (ite (and $x34 $x31) (_ bv0 9) standard_metadata.egress_spec))))
 (let (($x37 (= ?x46 (_ bv511 9))))
 (or $x37 (or (or false (= ?x46 (_ bv0 9))) (= ?x46 (_ bv1 9)))))))))))))
(assert
 (let ((?x42 (ite (and true (and true (= standard_metadata.ingress_port (_ bv1 9)))) 1 (- 1))))
 (let (($x27 (= standard_metadata.ingress_port (_ bv0 9))))
 (let (($x28 (and true $x27)))
 (let (($x32 (and true $x28)))
 (let ((?x45 (ite $x32 0 ?x42)))
 (let (($x30 (= standard_metadata.ingress_port (_ bv1 9))))
 (let (($x31 (and true $x30)))
 (let ((?x43 (ite (and (and true (not $x28)) $x31) (_ bv0 9) standard_metadata.egress_spec)))
 (let ((?x46 (ite $x32 (_ bv1 9) ?x43)))
 (let (($x37 (= ?x46 (_ bv511 9))))
 (let (($x111 (and (not $x37) true)))
 (and $x111 (= ?x45 0))))))))))))))
(check-sat)

; 
(set-info :status unknown)
(declare-fun standard_metadata.ingress_port () (_ BitVec 9))
(declare-fun standard_metadata.egress_spec () (_ BitVec 9))
(assert
 (let (($x30 (= standard_metadata.ingress_port (_ bv1 9))))
 (or (or false (= standard_metadata.ingress_port (_ bv0 9))) $x30)))
(assert
 (let (($x30 (= standard_metadata.ingress_port (_ bv1 9))))
 (let (($x31 (and true $x30)))
 (let (($x34 (and true (not (and true (= standard_metadata.ingress_port (_ bv0 9)))))))
 (let (($x27 (= standard_metadata.ingress_port (_ bv0 9))))
 (let (($x28 (and true $x27)))
 (let (($x32 (and true $x28)))
 (let ((?x46 (ite $x32 (_ bv1 9) (ite (and $x34 $x31) (_ bv0 9) standard_metadata.egress_spec))))
 (let (($x37 (= ?x46 (_ bv511 9))))
 (or $x37 (or (or false (= ?x46 (_ bv0 9))) (= ?x46 (_ bv1 9)))))))))))))
(assert
 (let ((?x42 (ite (and true (and true (= standard_metadata.ingress_port (_ bv1 9)))) 1 (- 1))))
 (let (($x27 (= standard_metadata.ingress_port (_ bv0 9))))
 (let (($x28 (and true $x27)))
 (let (($x32 (and true $x28)))
 (let ((?x45 (ite $x32 0 ?x42)))
 (let (($x30 (= standard_metadata.ingress_port (_ bv1 9))))
 (let (($x31 (and true $x30)))
 (let ((?x43 (ite (and (and true (not $x28)) $x31) (_ bv0 9) standard_metadata.egress_spec)))
 (let ((?x46 (ite $x32 (_ bv1 9) ?x43)))
 (let (($x37 (= ?x46 (_ bv511 9))))
 (and (and (not $x37) true) (= ?x45 1)))))))))))))
(check-sat)

